Route 1: 0 85 63 48 86 54 2 0
Route 2: 0 27 1 88 77 20 10 31 37 95 61 0
Route 3: 0 24 87 26 80 62 91 74 17 19 70 57 0
Route 4: 0 34 93 42 67 45 60 98 52 53 0
Route 5: 0 36 39 7 51 49 38 0
Route 6: 0 5 23 55 50 21 8 64 65 83 4 46 82 0
Route 7: 0 79 68 32 9 89 35 99 97 0
Route 8: 0 58 56 22 28 30 76 78 0
Route 9: 0 29 71 59 13 16 66 0
Route 10: 0 44 47 15 73 84 18 14 75 94 72 25 0
Route 11: 0 100 33 92 43 12 40 3 41 0
Route 12: 0 81 69 90 11 96 6 0
